(declare-fun e () String)
(declare-fun g () String)
(declare-fun d () String)
(declare-fun f () String)
(declare-fun a () String)
(assert (= (str.++ "fce" f) (str.++ a "hg" d a "g")))
(assert (= "f" (str.++ g "f" g)))
(assert (= (str.++ e e) (str.++ "gb" d)))

(check-sat)
